param n := 50;
param c := 150;
param w := 
1 148
2 146
3 146
4 142
5 134
6 133
7 133
8 131
9 131
10 126
11 125
12 123
13 116
14 113
15 110
16 109
17 107
18 106
19 99
20 98
21 98
22 94
23 92
24 85
25 83
26 78
27 71
28 70
29 67
30 61
31 55
32 49
33 46
34 43
35 42
36 36
37 33
38 26
39 22
40 19
41 17
42 17
43 15
44 14
45 7
46 6
47 4
48 3
49 2
50 1
;